unsat
(:max-memory         18.05
 :memory             18.05
 :nlsat-conflicts    1
 :nlsat-propagations 6
 :nlsat-stages       1
 :num-allocs         23957
 :rlimit-count       3709
 :time               0.00)
